106208 100 1100 89 74 71 83 70 70 70 96 93 86 98 83 97 91 81 74 97 81 93 98 96 79 83 78 75 96 74 76 96 88 96 94 79 94 97 89 86 95 72 71 81 97 75 97 94 74 88 79 71 98 93 73 77 74 79 77 75 95 93 89 84 92 97 76 74 75 94 72 92 94 73 84 94 73 82 78 78 88 78 76 81 70 88 85 75 82 71 86 71 77 80 98 85 78 91 78 72 89 97 76 45 54 72 103 30 36 59 124 124 100 143 110 143 122 139 53 130 77 138 134 109 82 128 125 84 61 33 36 133 104 90 122 62 93 105 141 54 104 123 89 84 112 65 73 44 45 71 70 43 146 123 75 103 39 104 117 118 81 59 119 127 51 149 114 76 35 129 94 91 96 126 69 74 36 143 89 47 123 82 58 137 36 99 108 87 82 145 106 114 100 32 126 146 86 118 127 37 87 138 106
